============================[ Problem Statistics ]=============================|                                                                             ||  Number of variables:          4242                                         ||  Number of clauses:            9782                                         ||  Parse time:                   0.18 s                                       ||                                                                             |============================[ Search Statistics ]==============================| Conflicts |          ORIGINAL         |          LEARNT          | Progress ||           |    Vars  Clauses Literals |    Limit  Clauses Lit/Cl |          |===============================================================================|       100 |    1591     5987   272718 |     2195      100     53 | 62.501 % |===============================================================================restarts              : 2conflicts             : 109            (346 /sec)decisions             : 279            (0.00 % random) (886 /sec)propagations          : 9866           (31321 /sec)conflict literals     : 6067           (95.85 % deleted)CPU time              : 0.315 sSATISFIABLE